70
1 0 1
2 0 8
2 1 9
3 0 8
3 1 2
3 2 11
4 0 2
4 1 8
4 2 5
4 3 9
5 0 8
5 1 2
5 2 2
5 3 6
5 4 11
6 0 4
6 1 4
6 2 11
6 3 11
6 4 2
6 5 3
7 0 7
7 1 5
7 2 6
7 3 7
7 4 2
7 5 6
7 6 5
8 0 2
8 1 5
8 2 1
8 3 6
8 4 8
8 5 3
8 6 5
8 7 11
9 0 9
9 1 5
9 2 9
9 3 5
9 4 5
9 5 10
9 6 3
9 7 8
9 8 8
10 0 8
10 1 4
10 2 7
10 3 2
10 4 6
10 5 2
10 6 6
10 7 2
10 8 1
10 9 6
11 0 6
11 1 6
11 2 5
11 3 4
11 4 6
11 5 11
11 6 6
11 7 9
11 8 8
11 9 4
11 10 7
12 0 5
12 1 2
12 2 2
12 3 8
12 4 2
12 5 8
12 6 3
12 7 11
12 8 9
12 9 8
12 10 9
12 11 2
13 0 8
13 1 7
13 2 5
13 3 7
13 4 8
13 5 3
13 6 7
13 7 6
13 8 2
13 9 1
13 10 7
13 11 5
13 12 3
14 0 7
14 1 11
14 2 10
14 3 6
14 4 5
14 5 10
14 6 7
14 7 8
14 8 11
14 9 2
14 10 10
14 11 6
14 12 7
14 13 6
15 0 3
15 1 2
15 2 11
15 3 3
15 4 7
15 5 9
15 6 1
15 7 4
15 8 7
15 9 8
15 10 2
15 11 8
15 12 9
15 13 4
15 14 7
16 0 6
16 1 2
16 2 10
16 3 1
16 4 8
16 5 3
16 6 9
16 7 10
16 8 6
16 9 7
16 10 3
16 11 2
16 12 1
16 13 10
16 14 3
16 15 1
17 0 6
17 1 11
17 2 4
17 3 10
17 4 4
17 5 5
17 6 6
17 7 7
17 8 1
17 9 2
17 10 8
17 11 2
17 12 4
17 13 7
17 14 5
17 15 2
17 16 10
18 0 7
18 1 8
18 2 11
18 3 1
18 4 8
18 5 2
18 6 2
18 7 1
18 8 2
18 9 9
18 10 8
18 11 4
18 12 4
18 13 6
18 14 1
18 15 10
18 16 6
18 17 10
19 0 5
19 1 7
19 2 11
19 3 4
19 4 6
19 5 11
19 6 4
19 7 8
19 8 1
19 9 6
19 10 10
19 11 9
19 12 11
19 13 8
19 14 10
19 15 11
19 16 7
19 17 5
19 18 5
20 0 2
20 1 11
20 2 9
20 3 2
20 4 8
20 5 3
20 6 6
20 7 9
20 8 3
20 9 11
20 10 2
20 11 1
20 12 8
20 13 9
20 14 6
20 15 11
20 16 1
20 17 11
20 18 8
20 19 6
21 0 9
21 1 5
21 2 2
21 3 10
21 4 11
21 5 2
21 6 11
21 7 1
21 8 1
21 9 2
21 10 1
21 11 3
21 12 4
21 13 4
21 14 4
21 15 9
21 16 5
21 17 11
21 18 3
21 19 10
21 20 2
22 0 8
22 1 7
22 2 11
22 3 7
22 4 8
22 5 1
22 6 2
22 7 4
22 8 9
22 9 3
22 10 2
22 11 11
22 12 5
22 13 10
22 14 1
22 15 3
22 16 3
22 17 4
22 18 11
22 19 9
22 20 6
22 21 11
23 0 4
23 1 6
23 2 3
23 3 8
23 4 10
23 5 2
23 6 6
23 7 10
23 8 8
23 9 4
23 10 3
23 11 9
23 12 6
23 13 11
23 14 5
23 15 3
23 16 9
23 17 6
23 18 10
23 19 4
23 20 4
23 21 3
23 22 10
24 0 6
24 1 9
24 2 7
24 3 1
24 4 2
24 5 8
24 6 2
24 7 9
24 8 3
24 9 1
24 10 2
24 11 1
24 12 8
24 13 11
24 14 9
24 15 10
24 16 10
24 17 7
24 18 8
24 19 1
24 20 3
24 21 9
24 22 5
24 23 5
25 0 3
25 1 7
25 2 2
25 3 3
25 4 4
25 5 5
25 6 2
25 7 3
25 8 8
25 9 10
25 10 6
25 11 3
25 12 5
25 13 3
25 14 1
25 15 11
25 16 2
25 17 1
25 18 11
25 19 8
25 20 10
25 21 4
25 22 11
25 23 9
25 24 11
26 0 5
26 1 9
26 2 11
26 3 1
26 4 11
26 5 7
26 6 7
26 7 6
26 8 5
26 9 10
26 10 2
26 11 7
26 12 9
26 13 5
26 14 10
26 15 9
26 16 5
26 17 8
26 18 9
26 19 1
26 20 4
26 21 9
26 22 7
26 23 3
26 24 9
26 25 10
27 0 7
27 1 10
27 2 7
27 3 6
27 4 6
27 5 3
27 6 11
27 7 8
27 8 1
27 9 7
27 10 3
27 11 6
27 12 6
27 13 9
27 14 6
27 15 8
27 16 8
27 17 5
27 18 4
27 19 6
27 20 3
27 21 11
27 22 1
27 23 10
27 24 11
27 25 4
27 26 9
28 0 8
28 1 5
28 2 7
28 3 3
28 4 5
28 5 2
28 6 4
28 7 2
28 8 4
28 9 3
28 10 3
28 11 10
28 12 3
28 13 6
28 14 5
28 15 5
28 16 8
28 17 7
28 18 7
28 19 6
28 20 2
28 21 1
28 22 6
28 23 3
28 24 7
28 25 11
28 26 11
28 27 2
29 0 3
29 1 7
29 2 5
29 3 6
29 4 3
29 5 3
29 6 11
29 7 4
29 8 1
29 9 6
29 10 3
29 11 1
29 12 8
29 13 2
29 14 5
29 15 8
29 16 10
29 17 2
29 18 1
29 19 8
29 20 2
29 21 3
29 22 10
29 23 2
29 24 4
29 25 7
29 26 8
29 27 6
29 28 10
30 0 2
30 1 2
30 2 3
30 3 1
30 4 5
30 5 3
30 6 1
30 7 11
30 8 1
30 9 11
30 10 2
30 11 11
30 12 2
30 13 2
30 14 7
30 15 4
30 16 11
30 17 9
30 18 3
30 19 5
30 20 11
30 21 1
30 22 11
30 23 8
30 24 9
30 25 9
30 26 6
30 27 2
30 28 6
30 29 6
31 0 11
31 1 6
31 2 3
31 3 11
31 4 3
31 5 6
31 6 8
31 7 11
31 8 10
31 9 10
31 10 3
31 11 2
31 12 7
31 13 3
31 14 9
31 15 1
31 16 1
31 17 8
31 18 2
31 19 7
31 20 8
31 21 6
31 22 11
31 23 3
31 24 8
31 25 4
31 26 10
31 27 5
31 28 4
31 29 6
31 30 1
32 0 2
32 1 5
32 2 11
32 3 6
32 4 11
32 5 1
32 6 4
32 7 11
32 8 10
32 9 8
32 10 5
32 11 2
32 12 11
32 13 7
32 14 8
32 15 3
32 16 9
32 17 2
32 18 11
32 19 3
32 20 1
32 21 11
32 22 3
32 23 7
32 24 4
32 25 9
32 26 10
32 27 10
32 28 10
32 29 10
32 30 4
32 31 8
33 0 8
33 1 8
33 2 11
33 3 11
33 4 7
33 5 2
33 6 4
33 7 9
33 8 9
33 9 7
33 10 8
33 11 5
33 12 6
33 13 9
33 14 10
33 15 6
33 16 3
33 17 11
33 18 5
33 19 1
33 20 11
33 21 2
33 22 5
33 23 10
33 24 1
33 25 9
33 26 5
33 27 3
33 28 10
33 29 3
33 30 1
33 31 6
33 32 1
34 0 3
34 1 10
34 2 8
34 3 3
34 4 3
34 5 3
34 6 11
34 7 8
34 8 11
34 9 8
34 10 9
34 11 1
34 12 3
34 13 1
34 14 7
34 15 1
34 16 2
34 17 3
34 18 6
34 19 2
34 20 9
34 21 1
34 22 4
34 23 3
34 24 10
34 25 8
34 26 7
34 27 7
34 28 8
34 29 4
34 30 10
34 31 7
34 32 5
34 33 8
35 0 10
35 1 4
35 2 1
35 3 1
35 4 2
35 5 9
35 6 11
35 7 4
35 8 2
35 9 6
35 10 2
35 11 8
35 12 2
35 13 5
35 14 4
35 15 1
35 16 2
35 17 8
35 18 9
35 19 4
35 20 3
35 21 11
35 22 5
35 23 8
35 24 1
35 25 8
35 26 5
35 27 5
35 28 1
35 29 7
35 30 8
35 31 6
35 32 1
35 33 6
35 34 6
36 0 1
36 1 3
36 2 7
36 3 2
36 4 10
36 5 6
36 6 7
36 7 2
36 8 4
36 9 3
36 10 8
36 11 11
36 12 9
36 13 3
36 14 10
36 15 8
36 16 2
36 17 3
36 18 8
36 19 8
36 20 5
36 21 3
36 22 9
36 23 2
36 24 4
36 25 2
36 26 3
36 27 1
36 28 11
36 29 11
36 30 7
36 31 5
36 32 4
36 33 1
36 34 3
36 35 8
37 0 7
37 1 2
37 2 11
37 3 10
37 4 7
37 5 6
37 6 1
37 7 5
37 8 3
37 9 6
37 10 3
37 11 1
37 12 7
37 13 6
37 14 7
37 15 5
37 16 5
37 17 6
37 18 7
37 19 9
37 20 11
37 21 5
37 22 10
37 23 6
37 24 4
37 25 6
37 26 3
37 27 7
37 28 4
37 29 5
37 30 4
37 31 1
37 32 5
37 33 1
37 34 1
37 35 4
37 36 11
38 0 9
38 1 1
38 2 9
38 3 6
38 4 11
38 5 4
38 6 11
38 7 2
38 8 11
38 9 6
38 10 5
38 11 7
38 12 11
38 13 8
38 14 3
38 15 5
38 16 11
38 17 1
38 18 11
38 19 11
38 20 9
38 21 6
38 22 4
38 23 5
38 24 3
38 25 5
38 26 7
38 27 8
38 28 10
38 29 11
38 30 8
38 31 4
38 32 8
38 33 3
38 34 10
38 35 11
38 36 7
38 37 11
39 0 2
39 1 6
39 2 7
39 3 3
39 4 6
39 5 11
39 6 10
39 7 4
39 8 9
39 9 9
39 10 7
39 11 1
39 12 9
39 13 7
39 14 2
39 15 5
39 16 3
39 17 2
39 18 6
39 19 1
39 20 8
39 21 9
39 22 1
39 23 10
39 24 1
39 25 5
39 26 1
39 27 5
39 28 8
39 29 11
39 30 6
39 31 4
39 32 2
39 33 11
39 34 6
39 35 5
39 36 9
39 37 7
39 38 7
40 0 8
40 1 10
40 2 8
40 3 5
40 4 2
40 5 6
40 6 11
40 7 10
40 8 11
40 9 6
40 10 1
40 11 11
40 12 9
40 13 5
40 14 9
40 15 11
40 16 5
40 17 2
40 18 10
40 19 11
40 20 2
40 21 7
40 22 10
40 23 6
40 24 4
40 25 3
40 26 8
40 27 10
40 28 3
40 29 6
40 30 7
40 31 9
40 32 2
40 33 11
40 34 2
40 35 5
40 36 2
40 37 6
40 38 2
40 39 9
41 0 3
41 1 3
41 2 11
41 3 7
41 4 7
41 5 5
41 6 10
41 7 3
41 8 1
41 9 7
41 10 6
41 11 4
41 12 6
41 13 1
41 14 7
41 15 8
41 16 3
41 17 11
41 18 7
41 19 5
41 20 11
41 21 10
41 22 2
41 23 7
41 24 4
41 25 11
41 26 10
41 27 1
41 28 1
41 29 6
41 30 7
41 31 7
41 32 9
41 33 1
41 34 3
41 35 6
41 36 10
41 37 6
41 38 8
41 39 10
41 40 3
42 0 1
42 1 4
42 2 2
42 3 2
42 4 3
42 5 7
42 6 1
42 7 9
42 8 11
42 9 9
42 10 4
42 11 6
42 12 4
42 13 8
42 14 11
42 15 1
42 16 8
42 17 6
42 18 2
42 19 6
42 20 4
42 21 6
42 22 11
42 23 5
42 24 3
42 25 11
42 26 2
42 27 6
42 28 1
42 29 11
42 30 2
42 31 1
42 32 7
42 33 9
42 34 8
42 35 3
42 36 9
42 37 11
42 38 4
42 39 11
42 40 6
42 41 5
43 0 6
43 1 6
43 2 6
43 3 5
43 4 4
43 5 2
43 6 11
43 7 8
43 8 3
43 9 9
43 10 8
43 11 6
43 12 3
43 13 7
43 14 7
43 15 8
43 16 6
43 17 4
43 18 1
43 19 3
43 20 1
43 21 11
43 22 5
43 23 9
43 24 11
43 25 10
43 26 7
43 27 6
43 28 6
43 29 10
43 30 1
43 31 1
43 32 10
43 33 4
43 34 11
43 35 8
43 36 5
43 37 9
43 38 2
43 39 11
43 40 6
43 41 2
43 42 7
44 0 7
44 1 5
44 2 7
44 3 11
44 4 4
44 5 5
44 6 11
44 7 6
44 8 5
44 9 6
44 10 9
44 11 5
44 12 3
44 13 3
44 14 10
44 15 2
44 16 3
44 17 6
44 18 1
44 19 1
44 20 9
44 21 1
44 22 5
44 23 3
44 24 3
44 25 9
44 26 3
44 27 7
44 28 6
44 29 4
44 30 9
44 31 2
44 32 6
44 33 8
44 34 8
44 35 4
44 36 6
44 37 5
44 38 1
44 39 2
44 40 8
44 41 2
44 42 8
44 43 2
45 0 7
45 1 9
45 2 4
45 3 3
45 4 3
45 5 10
45 6 4
45 7 7
45 8 5
45 9 4
45 10 4
45 11 5
45 12 1
45 13 6
45 14 7
45 15 6
45 16 9
45 17 11
45 18 2
45 19 4
45 20 6
45 21 6
45 22 2
45 23 5
45 24 4
45 25 3
45 26 7
45 27 2
45 28 1
45 29 9
45 30 5
45 31 2
45 32 6
45 33 8
45 34 8
45 35 10
45 36 10
45 37 5
45 38 6
45 39 2
45 40 6
45 41 10
45 42 9
45 43 11
45 44 11
46 0 9
46 1 6
46 2 4
46 3 10
46 4 11
46 5 1
46 6 3
46 7 8
46 8 3
46 9 5
46 10 9
46 11 3
46 12 5
46 13 10
46 14 9
46 15 6
46 16 5
46 17 8
46 18 7
46 19 10
46 20 2
46 21 6
46 22 10
46 23 10
46 24 8
46 25 9
46 26 10
46 27 7
46 28 7
46 29 4
46 30 10
46 31 3
46 32 8
46 33 7
46 34 10
46 35 6
46 36 3
46 37 9
46 38 4
46 39 5
46 40 4
46 41 5
46 42 3
46 43 1
46 44 3
46 45 9
47 0 9
47 1 8
47 2 8
47 3 11
47 4 4
47 5 11
47 6 7
47 7 4
47 8 2
47 9 9
47 10 2
47 11 9
47 12 8
47 13 5
47 14 11
47 15 9
47 16 2
47 17 5
47 18 8
47 19 5
47 20 5
47 21 8
47 22 6
47 23 2
47 24 5
47 25 1
47 26 4
47 27 7
47 28 4
47 29 8
47 30 3
47 31 9
47 32 6
47 33 7
47 34 6
47 35 10
47 36 1
47 37 4
47 38 10
47 39 2
47 40 10
47 41 10
47 42 3
47 43 11
47 44 7
47 45 1
47 46 5
48 0 10
48 1 6
48 2 9
48 3 7
48 4 6
48 5 11
48 6 3
48 7 11
48 8 11
48 9 11
48 10 6
48 11 1
48 12 3
48 13 3
48 14 8
48 15 7
48 16 5
48 17 3
48 18 9
48 19 8
48 20 4
48 21 4
48 22 4
48 23 4
48 24 10
48 25 8
48 26 2
48 27 3
48 28 3
48 29 8
48 30 9
48 31 11
48 32 3
48 33 1
48 34 11
48 35 9
48 36 2
48 37 2
48 38 3
48 39 8
48 40 1
48 41 3
48 42 1
48 43 11
48 44 3
48 45 6
48 46 7
48 47 3
49 0 1
49 1 11
49 2 8
49 3 8
49 4 6
49 5 1
49 6 2
49 7 1
49 8 6
49 9 10
49 10 1
49 11 1
49 12 8
49 13 5
49 14 9
49 15 4
49 16 6
49 17 8
49 18 1
49 19 4
49 20 9
49 21 9
49 22 3
49 23 10
49 24 1
49 25 5
49 26 8
49 27 8
49 28 8
49 29 4
49 30 3
49 31 3
49 32 4
49 33 1
49 34 9
49 35 5
49 36 4
49 37 1
49 38 1
49 39 11
49 40 3
49 41 6
49 42 10
49 43 11
49 44 5
49 45 7
49 46 10
49 47 10
49 48 10
50 0 3
50 1 7
50 2 1
50 3 7
50 4 7
50 5 3
50 6 1
50 7 3
50 8 8
50 9 1
50 10 3
50 11 10
50 12 7
50 13 9
50 14 7
50 15 11
50 16 7
50 17 6
50 18 5
50 19 4
50 20 2
50 21 2
50 22 2
50 23 9
50 24 4
50 25 8
50 26 9
50 27 9
50 28 8
50 29 8
50 30 10
50 31 6
50 32 8
50 33 8
50 34 10
50 35 5
50 36 9
50 37 1
50 38 8
50 39 1
50 40 6
50 41 2
50 42 1
50 43 4
50 44 4
50 45 10
50 46 8
50 47 6
50 48 8
50 49 7
51 0 2
51 1 10
51 2 2
51 3 2
51 4 7
51 5 1
51 6 4
51 7 10
51 8 11
51 9 7
51 10 11
51 11 3
51 12 11
51 13 5
51 14 2
51 15 7
51 16 1
51 17 5
51 18 10
51 19 4
51 20 3
51 21 8
51 22 10
51 23 8
51 24 11
51 25 11
51 26 4
51 27 8
51 28 1
51 29 10
51 30 6
51 31 3
51 32 2
51 33 5
51 34 1
51 35 1
51 36 9
51 37 10
51 38 7
51 39 6
51 40 3
51 41 3
51 42 7
51 43 5
51 44 7
51 45 3
51 46 1
51 47 4
51 48 10
51 49 4
51 50 9
52 0 9
52 1 5
52 2 1
52 3 10
52 4 11
52 5 9
52 6 7
52 7 11
52 8 5
52 9 3
52 10 10
52 11 3
52 12 3
52 13 9
52 14 7
52 15 7
52 16 4
52 17 9
52 18 10
52 19 10
52 20 9
52 21 11
52 22 9
52 23 8
52 24 8
52 25 2
52 26 5
52 27 5
52 28 2
52 29 4
52 30 7
52 31 8
52 32 3
52 33 1
52 34 11
52 35 10
52 36 8
52 37 11
52 38 9
52 39 10
52 40 1
52 41 2
52 42 4
52 43 8
52 44 2
52 45 2
52 46 4
52 47 9
52 48 5
52 49 1
52 50 6
52 51 11
53 0 7
53 1 1
53 2 1
53 3 11
53 4 1
53 5 11
53 6 7
53 7 2
53 8 6
53 9 9
53 10 10
53 11 1
53 12 9
53 13 8
53 14 3
53 15 8
53 16 11
53 17 4
53 18 9
53 19 3
53 20 11
53 21 8
53 22 11
53 23 1
53 24 3
53 25 6
53 26 3
53 27 6
53 28 8
53 29 1
53 30 6
53 31 10
53 32 3
53 33 7
53 34 2
53 35 11
53 36 3
53 37 6
53 38 4
53 39 7
53 40 6
53 41 10
53 42 5
53 43 11
53 44 2
53 45 3
53 46 11
53 47 4
53 48 11
53 49 7
53 50 4
53 51 11
53 52 5
54 0 9
54 1 11
54 2 2
54 3 1
54 4 10
54 5 3
54 6 4
54 7 4
54 8 3
54 9 11
54 10 11
54 11 5
54 12 6
54 13 3
54 14 5
54 15 9
54 16 1
54 17 8
54 18 7
54 19 10
54 20 7
54 21 3
54 22 2
54 23 8
54 24 7
54 25 8
54 26 10
54 27 5
54 28 3
54 29 1
54 30 11
54 31 5
54 32 9
54 33 9
54 34 7
54 35 3
54 36 10
54 37 4
54 38 2
54 39 1
54 40 10
54 41 3
54 42 1
54 43 11
54 44 10
54 45 9
54 46 2
54 47 2
54 48 10
54 49 3
54 50 8
54 51 10
54 52 7
54 53 3
55 0 3
55 1 5
55 2 6
55 3 3
55 4 9
55 5 7
55 6 8
55 7 5
55 8 11
55 9 6
55 10 11
55 11 6
55 12 4
55 13 8
55 14 6
55 15 5
55 16 10
55 17 8
55 18 10
55 19 5
55 20 7
55 21 9
55 22 3
55 23 10
55 24 5
55 25 1
55 26 4
55 27 3
55 28 1
55 29 1
55 30 5
55 31 4
55 32 1
55 33 6
55 34 10
55 35 6
55 36 1
55 37 5
55 38 7
55 39 3
55 40 1
55 41 9
55 42 7
55 43 1
55 44 1
55 45 1
55 46 4
55 47 5
55 48 9
55 49 9
55 50 4
55 51 4
55 52 10
55 53 4
55 54 8
56 0 2
56 1 11
56 2 8
56 3 3
56 4 6
56 5 3
56 6 9
56 7 3
56 8 6
56 9 3
56 10 1
56 11 9
56 12 9
56 13 3
56 14 9
56 15 1
56 16 11
56 17 6
56 18 6
56 19 1
56 20 11
56 21 10
56 22 6
56 23 6
56 24 9
56 25 7
56 26 6
56 27 11
56 28 9
56 29 3
56 30 1
56 31 10
56 32 1
56 33 2
56 34 7
56 35 9
56 36 1
56 37 4
56 38 9
56 39 6
56 40 6
56 41 2
56 42 7
56 43 9
56 44 9
56 45 8
56 46 7
56 47 7
56 48 2
56 49 4
56 50 9
56 51 2
56 52 2
56 53 6
56 54 1
56 55 5
57 0 2
57 1 1
57 2 10
57 3 2
57 4 6
57 5 11
57 6 7
57 7 3
57 8 3
57 9 3
57 10 9
57 11 1
57 12 11
57 13 4
57 14 3
57 15 11
57 16 2
57 17 4
57 18 1
57 19 10
57 20 1
57 21 9
57 22 10
57 23 4
57 24 3
57 25 11
57 26 3
57 27 2
57 28 4
57 29 2
57 30 9
57 31 2
57 32 8
57 33 2
57 34 11
57 35 6
57 36 8
57 37 10
57 38 11
57 39 3
57 40 2
57 41 6
57 42 3
57 43 7
57 44 7
57 45 2
57 46 9
57 47 6
57 48 2
57 49 3
57 50 8
57 51 1
57 52 7
57 53 9
57 54 4
57 55 2
57 56 1
58 0 9
58 1 5
58 2 10
58 3 11
58 4 8
58 5 8
58 6 4
58 7 8
58 8 5
58 9 10
58 10 3
58 11 7
58 12 10
58 13 3
58 14 7
58 15 9
58 16 4
58 17 1
58 18 3
58 19 7
58 20 9
58 21 9
58 22 10
58 23 10
58 24 9
58 25 11
58 26 9
58 27 11
58 28 6
58 29 6
58 30 2
58 31 7
58 32 2
58 33 10
58 34 1
58 35 8
58 36 2
58 37 5
58 38 7
58 39 11
58 40 1
58 41 3
58 42 2
58 43 5
58 44 9
58 45 6
58 46 2
58 47 5
58 48 3
58 49 1
58 50 8
58 51 6
58 52 6
58 53 8
58 54 3
58 55 11
58 56 4
58 57 10
59 0 11
59 1 2
59 2 11
59 3 5
59 4 1
59 5 6
59 6 5
59 7 5
59 8 3
59 9 1
59 10 6
59 11 9
59 12 8
59 13 6
59 14 10
59 15 11
59 16 1
59 17 9
59 18 11
59 19 3
59 20 2
59 21 11
59 22 6
59 23 7
59 24 2
59 25 3
59 26 10
59 27 9
59 28 9
59 29 11
59 30 11
59 31 6
59 32 6
59 33 1
59 34 11
59 35 3
59 36 6
59 37 2
59 38 3
59 39 1
59 40 3
59 41 4
59 42 11
59 43 4
59 44 4
59 45 7
59 46 10
59 47 8
59 48 7
59 49 4
59 50 10
59 51 3
59 52 8
59 53 2
59 54 9
59 55 6
59 56 1
59 57 10
59 58 3
60 0 6
60 1 8
60 2 8
60 3 2
60 4 5
60 5 7
60 6 5
60 7 10
60 8 8
60 9 1
60 10 7
60 11 11
60 12 6
60 13 11
60 14 8
60 15 2
60 16 4
60 17 7
60 18 10
60 19 1
60 20 10
60 21 9
60 22 5
60 23 8
60 24 10
60 25 4
60 26 6
60 27 7
60 28 10
60 29 6
60 30 5
60 31 5
60 32 8
60 33 3
60 34 7
60 35 9
60 36 2
60 37 11
60 38 3
60 39 11
60 40 1
60 41 2
60 42 10
60 43 2
60 44 11
60 45 10
60 46 7
60 47 4
60 48 1
60 49 4
60 50 4
60 51 8
60 52 9
60 53 10
60 54 1
60 55 3
60 56 11
60 57 8
60 58 8
60 59 5
61 0 10
61 1 4
61 2 1
61 3 5
61 4 9
61 5 2
61 6 7
61 7 6
61 8 1
61 9 2
61 10 7
61 11 6
61 12 4
61 13 7
61 14 3
61 15 6
61 16 7
61 17 9
61 18 8
61 19 4
61 20 9
61 21 8
61 22 11
61 23 4
61 24 11
61 25 7
61 26 2
61 27 5
61 28 10
61 29 7
61 30 8
61 31 8
61 32 4
61 33 5
61 34 7
61 35 11
61 36 9
61 37 5
61 38 4
61 39 5
61 40 1
61 41 4
61 42 1
61 43 2
61 44 8
61 45 8
61 46 5
61 47 3
61 48 2
61 49 8
61 50 1
61 51 11
61 52 11
61 53 11
61 54 3
61 55 4
61 56 1
61 57 4
61 58 4
61 59 8
61 60 2
62 0 8
62 1 7
62 2 1
62 3 2
62 4 5
62 5 1
62 6 3
62 7 6
62 8 1
62 9 6
62 10 8
62 11 10
62 12 8
62 13 9
62 14 9
62 15 4
62 16 2
62 17 3
62 18 11
62 19 2
62 20 10
62 21 5
62 22 10
62 23 7
62 24 2
62 25 11
62 26 7
62 27 2
62 28 4
62 29 9
62 30 4
62 31 4
62 32 6
62 33 4
62 34 9
62 35 7
62 36 6
62 37 4
62 38 6
62 39 9
62 40 5
62 41 9
62 42 7
62 43 4
62 44 7
62 45 5
62 46 9
62 47 6
62 48 4
62 49 4
62 50 4
62 51 9
62 52 2
62 53 4
62 54 3
62 55 3
62 56 5
62 57 9
62 58 1
62 59 11
62 60 8
62 61 6
63 0 5
63 1 5
63 2 9
63 3 4
63 4 6
63 5 1
63 6 11
63 7 11
63 8 9
63 9 6
63 10 3
63 11 1
63 12 6
63 13 4
63 14 8
63 15 10
63 16 3
63 17 2
63 18 9
63 19 2
63 20 5
63 21 1
63 22 2
63 23 1
63 24 1
63 25 10
63 26 4
63 27 11
63 28 6
63 29 11
63 30 8
63 31 6
63 32 10
63 33 10
63 34 11
63 35 11
63 36 7
63 37 8
63 38 10
63 39 8
63 40 6
63 41 11
63 42 11
63 43 9
63 44 3
63 45 11
63 46 1
63 47 10
63 48 1
63 49 8
63 50 8
63 51 11
63 52 8
63 53 3
63 54 4
63 55 2
63 56 5
63 57 8
63 58 10
63 59 10
63 60 1
63 61 4
63 62 10
64 0 8
64 1 11
64 2 11
64 3 6
64 4 7
64 5 3
64 6 2
64 7 6
64 8 3
64 9 4
64 10 8
64 11 7
64 12 8
64 13 1
64 14 1
64 15 3
64 16 3
64 17 1
64 18 3
64 19 8
64 20 3
64 21 8
64 22 10
64 23 2
64 24 3
64 25 5
64 26 7
64 27 6
64 28 10
64 29 2
64 30 5
64 31 2
64 32 7
64 33 2
64 34 4
64 35 8
64 36 7
64 37 10
64 38 9
64 39 8
64 40 10
64 41 4
64 42 1
64 43 5
64 44 5
64 45 10
64 46 9
64 47 9
64 48 3
64 49 5
64 50 9
64 51 7
64 52 6
64 53 4
64 54 8
64 55 2
64 56 4
64 57 7
64 58 11
64 59 6
64 60 10
64 61 9
64 62 10
64 63 1
65 0 10
65 1 5
65 2 2
65 3 2
65 4 10
65 5 7
65 6 4
65 7 7
65 8 11
65 9 3
65 10 11
65 11 4
65 12 4
65 13 7
65 14 3
65 15 11
65 16 8
65 17 3
65 18 4
65 19 10
65 20 10
65 21 10
65 22 2
65 23 5
65 24 3
65 25 10
65 26 4
65 27 1
65 28 9
65 29 6
65 30 5
65 31 11
65 32 9
65 33 3
65 34 2
65 35 8
65 36 7
65 37 6
65 38 3
65 39 11
65 40 10
65 41 8
65 42 4
65 43 11
65 44 9
65 45 1
65 46 5
65 47 1
65 48 1
65 49 7
65 50 3
65 51 5
65 52 10
65 53 6
65 54 5
65 55 1
65 56 11
65 57 9
65 58 9
65 59 6
65 60 7
65 61 9
65 62 5
65 63 10
65 64 5
66 0 3
66 1 11
66 2 7
66 3 10
66 4 7
66 5 7
66 6 7
66 7 5
66 8 11
66 9 2
66 10 11
66 11 7
66 12 3
66 13 3
66 14 10
66 15 6
66 16 6
66 17 1
66 18 1
66 19 9
66 20 11
66 21 6
66 22 5
66 23 11
66 24 7
66 25 9
66 26 1
66 27 6
66 28 11
66 29 1
66 30 2
66 31 9
66 32 5
66 33 11
66 34 11
66 35 3
66 36 11
66 37 8
66 38 11
66 39 7
66 40 9
66 41 8
66 42 7
66 43 6
66 44 4
66 45 3
66 46 2
66 47 4
66 48 5
66 49 10
66 50 7
66 51 10
66 52 3
66 53 5
66 54 2
66 55 2
66 56 7
66 57 2
66 58 10
66 59 3
66 60 8
66 61 1
66 62 1
66 63 10
66 64 4
66 65 8
67 0 4
67 1 5
67 2 1
67 3 6
67 4 10
67 5 3
67 6 10
67 7 5
67 8 11
67 9 10
67 10 2
67 11 10
67 12 8
67 13 8
67 14 2
67 15 6
67 16 11
67 17 2
67 18 1
67 19 5
67 20 3
67 21 1
67 22 2
67 23 1
67 24 1
67 25 10
67 26 8
67 27 3
67 28 6
67 29 10
67 30 7
67 31 1
67 32 8
67 33 2
67 34 8
67 35 10
67 36 4
67 37 8
67 38 7
67 39 6
67 40 11
67 41 10
67 42 10
67 43 7
67 44 5
67 45 4
67 46 11
67 47 7
67 48 3
67 49 1
67 50 9
67 51 2
67 52 4
67 53 2
67 54 8
67 55 2
67 56 9
67 57 5
67 58 5
67 59 8
67 60 9
67 61 4
67 62 3
67 63 2
67 64 6
67 65 4
67 66 6
68 0 5
68 1 8
68 2 6
68 3 8
68 4 8
68 5 4
68 6 4
68 7 10
68 8 3
68 9 8
68 10 4
68 11 2
68 12 8
68 13 1
68 14 3
68 15 1
68 16 6
68 17 8
68 18 7
68 19 4
68 20 3
68 21 11
68 22 8
68 23 6
68 24 7
68 25 10
68 26 4
68 27 10
68 28 9
68 29 1
68 30 6
68 31 7
68 32 10
68 33 1
68 34 10
68 35 7
68 36 7
68 37 4
68 38 11
68 39 1
68 40 8
68 41 3
68 42 3
68 43 6
68 44 6
68 45 6
68 46 10
68 47 3
68 48 5
68 49 10
68 50 2
68 51 6
68 52 7
68 53 5
68 54 4
68 55 10
68 56 7
68 57 5
68 58 6
68 59 9
68 60 5
68 61 8
68 62 6
68 63 3
68 64 2
68 65 3
68 66 7
68 67 10
69 0 10
69 1 2
69 2 7
69 3 7
69 4 9
69 5 7
69 6 5
69 7 3
69 8 1
69 9 8
69 10 9
69 11 2
69 12 3
69 13 2
69 14 5
69 15 5
69 16 1
69 17 2
69 18 6
69 19 9
69 20 1
69 21 5
69 22 8
69 23 1
69 24 5
69 25 7
69 26 1
69 27 8
69 28 9
69 29 9
69 30 6
69 31 10
69 32 5
69 33 10
69 34 6
69 35 10
69 36 6
69 37 11
69 38 4
69 39 6
69 40 9
69 41 3
69 42 6
69 43 10
69 44 6
69 45 2
69 46 10
69 47 2
69 48 2
69 49 8
69 50 6
69 51 2
69 52 11
69 53 8
69 54 2
69 55 2
69 56 1
69 57 4
69 58 9
69 59 6
69 60 8
69 61 7
69 62 4
69 63 3
69 64 3
69 65 10
69 66 2
69 67 7
69 68 3
